(set-logic HORN)
(set-info :source |
    Benchmark: C_VC
    Output by Princess (http://www.philipp.ruemmer.org/princess.shtml)
|)
(set-info :status unknown)
(declare-fun inv_main11 (Int Int Int Int Int) Bool)
(declare-fun inv_main12 (Int Int Int Int Int) Bool)
(declare-fun inv_main14 (Int Int Int Int Int) Bool)
(declare-fun inv_main2 () Bool)
(assert inv_main2 )
(assert (forall ((var0 Int)) (forall ((var1 Int)) (forall ((var2 Int)) (forall ((var3 Int)) (forall ((var4 Int)) (or (not (and (inv_main11 var2 var0 var3 var1 var4 ) (<= 0 (+ (+ 8 (* (- 1) var4 ) ) (- 1) ) ) ) ) (inv_main12 var2 var0 var3 var1 var4 ) ) ) ) ) ) ) )
(assert (forall ((var0 Int)) (forall ((var1 Int)) (forall ((var2 Int)) (forall ((var3 Int)) (forall ((var4 Int)) (or (not (inv_main12 var2 var0 var3 var1 var4 ) ) (inv_main14 var2 var0 var3 var1 var4 ) ) ) ) ) ) ) )
(assert (forall ((var0 Int)) (forall ((var1 Int)) (forall ((var2 Int)) (forall ((var3 Int)) (forall ((var4 Int)) (or (not (inv_main14 var2 var0 var3 var1 var4 ) ) (inv_main11 var2 var0 var3 var1 (+ var4 1 ) ) ) ) ) ) ) ) )
(assert (forall ((var0 Int)) (forall ((var1 Int)) (forall ((var2 Int)) (forall ((var3 Int)) (forall ((var4 Int)) (or (not (and (inv_main11 var2 var0 var3 var1 var4 ) (and (<= 0 (+ (+ var3 (* (- 1) (+ var1 1 ) ) ) (- 1) ) ) (not (<= 0 (+ (+ 8 (* (- 1) var4 ) ) (- 1) ) ) ) ) ) ) (inv_main11 var2 var0 var3 (+ var1 1 ) 0 ) ) ) ) ) ) ) )
(assert (forall ((var0 Int)) (forall ((var1 Int)) (forall ((var2 Int)) (or (not (and inv_main2 (<= 0 (+ var2 (- 1) ) ) ) ) (inv_main11 var1 var0 var2 0 0 ) ) ) ) ) )
(assert (forall ((var0 Int)) (forall ((var1 Int)) (forall ((var2 Int)) (forall ((var3 Int)) (forall ((var4 Int)) (not (and (inv_main12 var2 var0 var3 var1 var4 ) (not (<= 0 (+ (+ var3 (- 1) ) (* (- 1) var1 ) ) ) ) ) ) ) ) ) ) ) )
(assert (forall ((var0 Int)) (forall ((var1 Int)) (forall ((var2 Int)) (forall ((var3 Int)) (forall ((var4 Int)) (not (and (inv_main14 var2 var0 var3 var1 var4 ) (not (<= 0 (+ (+ var3 (* (- 1) (+ (+ var3 (- 1) ) (* (- 1) var1 ) ) ) ) (- 1) ) ) ) ) ) ) ) ) ) ) )
(check-sat)
